NAME: Random_75_1
ELLAPSED_TIME_(ms): 1
TOUR_SIZE: 2157.5923
TOUR_SECTION
0
13
24
43
29
8
49
27
32
56
63
11
25
16
39
45
65
41
22
9
12
6
71
52
69
20
68
59
26
28
74
66
46
62
58
73
53
44
60
23
61
21
67
70
31
64
35
14
48
4
33
7
36
19
40
3
34
2
51
17
55
42
72
10
5
1
54
50
38
47
18
57
37
30
15
0
EOF
